# AG options
options
etdemand
irrigation_well 6 1 
maxwells 6  
welllist -2
wellirrlist -2
timeseries_well
timeseries_wellet
end
# AG time series
time series
well 5 105
wellet 5 106
welletall 107
wellall 108
end
# AG well list
well list
         1         6         4    -10000.00
         1         6         5    -10000.00
         1         7         4    -10000.00
         1         7         5    -10000.00
         1         8         4    -10000.00
         1         8         5    -10000.00
end
# AG stress period
stress period 1
IRRWELL
0
END
stress period 2   Jan
IRRWELL
-1
END
stress period 3   Feb
IRRWELL
-1
END
stress period 4   Mar
IRRWELL
-1
END
stress period 5   April
IRRWELL
6
1 1  0.0 0.0           IRRWELLLID NUMCELLWELL IRRPERIODWELL TRIGGERPERIODWELL 
6 4 0.0 1.0               IRRROW IRRCOL EFF_FACT FIELD_FACT 
2 1
6 5 0.0 1.0 
3 1
7 4 0.0 1.0 
4 1
7 5 0.0 1.0 
5 1
8 4 0.0 1.0 
6 1
8 5 0.0 1.0 
end
stress period 6     May
IRRWELL
-1 
END
stress period 7     June
IRRWELL
-1
END
stress period 8     July
IRRWELL
-1
END
stress period 9     Aug
IRRWELL
-1
END
stress period 10    Sept
IRRWELL
-1
END
stress period 11    Oct
IRRWELL
0
END
stress period 12    Nov
IRRWELL
-1
END
stress period 13    Dec
IRRWELL
-1
END 
stress period 14    Jan
IRRWELL
-1
END
stress period 15    Feb
IRRWELL
-1
END
stress period 16    March
IRRWELL
-1
END
stress period 17    April
IRRWELL
6
1 1  0.0 0.0           IRRWELLLID NUMCELLWELL IRRPERIODWELL TRIGGERPERIODWELL 
6 4 0.0 1.0               IRRROW IRRCOL EFF_FACT FIELD_FACT 
2 1
6 5 0.0 1.0 
3 1
7 4 0.0 1.0 
4 1
7 5 0.0 1.0 
5 1
8 4 0.0 1.0 
6 1
8 5 0.0 1.0 
end
stress period 18     May
IRRWELL
-1
END
stress period 19     June
IRRWELL
-1
END
stress period 20     July
IRRWELL
-1
END
stress period 21     August
IRRWELL
-1
END
stress period 22     Sept
IRRWELL
-1
END
stress period 23      Oct
IRRWELL
0
END
stress period 24      Nov
IRRWELL
-1
END
stress period 25      Dec
IRRWELL
-1
END
stress period 26   Jan
IRRWELL
-1
END
stress period 27   Feb
IRRWELL
-1
END
stress period 28   Mar
IRRWELL
-1
END
stress period 29   April
IRRWELL
6
1 1  0.0 0.0           IRRWELLLID NUMCELLWELL IRRPERIODWELL TRIGGERPERIODWELL 
6 4 0.0 1.0               IRRROW IRRCOL EFF_FACT FIELD_FACT 
2 1
6 5 0.0 1.0 
3 1
7 4 0.0 1.0 
4 1
7 5 0.0 1.0 
5 1
8 4 0.0 1.0 
6 1
8 5 0.0 1.0 
end
stress period 30     May
IRRWELL
-1 
END
stress period 31     June
IRRWELL
-1
END
stress period 32     July
IRRWELL
-1
END
stress period 33     Aug
IRRWELL
-1
END
stress period 34    Sept
IRRWELL
-1
END
stress period 35    Oct
IRRWELL
0
END
stress period 36    Nov
IRRWELL
-1
END
stress period 37    Dec
IRRWELL
-1
END 
stress period 38    Jan
IRRWELL
-1
END
stress period 39    Feb
IRRWELL
-1
END
stress period 40    March
IRRWELL
-1
END
stress period 41    April
IRRWELL
6
1 1  0.0 0.0           IRRWELLLID NUMCELLWELL IRRPERIODWELL TRIGGERPERIODWELL 
6 4 0.0 1.0               IRRROW IRRCOL EFF_FACT FIELD_FACT 
2 1
6 5 0.0 1.0 
3 1
7 4 0.0 1.0 
4 1
7 5 0.0 1.0 
5 1
8 4 0.0 1.0 
6 1
8 5 0.0 1.0 
end
stress period 42     May
IRRWELL
-1
END
stress period 43     June
IRRWELL
-1
END
stress period 44     July
IRRWELL
-1
END
stress period 45     August
IRRWELL
-1
END
stress period 46     Sept
IRRWELL
-1
END
stress period 47      Oct
IRRWELL
0
END
stress period 48      Nov
IRRWELL
-1
END
stress period 49      Dec
IRRWELL
-1
END